1651001
0,4,34,100,23,108,88,90,10,48,9,63,14,22,21,103,57,53,101,99,52,16,79,47,20,12,92,64,6,87,41,59,105,39,7,27,35,11,54,67,32,77,107,75,17,49,72,18,61,86,95,104,98,46,70,96,26,85,56,74,68,69,13,38,30,71,25,36,37,40,8,76,65,89,73,55,91,3,66,78,102,31,94,5,29,60,42,84,93,45,80,1,58,50,83,19,43,62,24,2,82,28,15,106,44,81,33,51,97
